
Gurobi 10.0.3 (linux64, gurobi_cl) logging started Fri Nov 10 20:43:44 2023

Set parameter Username
Set parameter TimeLimit to value 3600
Set parameter LogFile to value "RCPSP_1869.log"
Set parameter Threads to value 32
Academic license - for non-commercial use only - expires 2024-10-30
Using license file /home/jrivera6/gurobi-licenses/v1003/compute-0-34/gurobi.lic

Gurobi Optimizer version 10.0.3 build v10.0.3rc0 (linux64)
Copyright (c) 2023, Gurobi Optimization, LLC

Read MPS format model from file RCPSP_1869.mps
Reading time = 0.23 seconds
RCPSP_1869: 75288 rows, 29890 columns, 237062 nonzeros

CPU model: Intel(R) Xeon(R) Gold 6130 CPU @ 2.10GHz, instruction set [SSE2|AVX|AVX2|AVX512]
Thread count: 32 physical cores, 32 logical processors, using up to 32 threads

Optimize a model with 75288 rows, 29890 columns and 237062 nonzeros
Model fingerprint: 0x5ee532b9
Variable types: 122 continuous, 29768 integer (29768 binary)
Coefficient statistics:
  Matrix range     [1e+00, 7e+02]
  Objective range  [1e+00, 1e+00]
  Bounds range     [1e+00, 1e+00]
  RHS range        [1e+00, 7e+02]
Presolve removed 12574 rows and 2207 columns (presolve time = 5s) ...
Presolve removed 12574 rows and 2207 columns (presolve time = 10s) ...
Presolve removed 15941 rows and 3379 columns
Presolve time: 12.07s
Presolved: 59347 rows, 26511 columns, 195231 nonzeros
Variable types: 121 continuous, 26390 integer (26390 binary)

Deterministic concurrent LP optimizer: primal and dual simplex (primal and dual model)
Showing first log only...

Root relaxation presolved: 59344 rows, 26514 columns, 195225 nonzeros


Root simplex log...

Iteration    Objective       Primal Inf.    Dual Inf.      Time
       0    1.0228617e+02   6.251870e-02   1.741006e+08     14s
    3171    1.0100000e+02   0.000000e+00   0.000000e+00     15s
    3171    1.0100000e+02   0.000000e+00   0.000000e+00     15s
Concurrent spin time: 0.81s

Solved with dual simplex (primal model)

Root relaxation: objective 1.010000e+02, 8815 iterations, 3.16 seconds (0.28 work units)
Total elapsed time = 20.49s

    Nodes    |    Current Node    |     Objective Bounds      |     Work
 Expl Unexpl |  Obj  Depth IntInf | Incumbent    BestBd   Gap | It/Node Time

     0     0  101.00000    0  275          -  101.00000      -     -   25s
     0     0  101.00000    0  271          -  101.00000      -     -   26s
     0     0  101.49180    0 1071          -  101.49180      -     -   80s
     0     0  101.49180    0 1046          -  101.49180      -     -   82s
     0     0  101.49180    0 1040          -  101.49180      -     -   82s
     0     0  101.97561    0 1039          -  101.97561      -     -   84s
     0     0  101.97561    0 1031          -  101.97561      -     -   84s
     0     0  103.00209    0  971          -  103.00209      -     -  109s
     0     0  103.00209    0  770          -  103.00209      -     -  110s
     0     0  103.00209    0  767          -  103.00209      -     -  110s
     0     0  103.00209    0  737          -  103.00209      -     -  112s
     0     0  103.00209    0  735          -  103.00209      -     -  113s
     0     0  104.00000    0 1068          -  104.00000      -     -  125s
     0     0  104.00000    0  879          -  104.00000      -     -  127s
     0     0  104.00000    0  881          -  104.00000      -     -  128s
     0     0  104.00000    0  879          -  104.00000      -     -  128s
     0     0  104.00000    0  833          -  104.00000      -     -  131s
     0     0  104.00000    0  848          -  104.00000      -     -  132s
     0     0  104.00000    0  848          -  104.00000      -     -  132s
     0     0  104.00000    0  996          -  104.00000      -     -  134s
     0     0  104.76923    0 1074          -  104.76923      -     -  142s
     0     0  104.76923    0  871          -  104.76923      -     -  147s
     0     0  104.76923    0  846          -  104.76923      -     -  148s
     0     0  104.76923    0  845          -  104.76923      -     -  148s
     0     0  104.76923    0  931          -  104.76923      -     -  161s
     0     0  104.76923    0  878          -  104.76923      -     -  162s
     0     0  104.76923    0  958          -  104.76923      -     -  168s
     0     0  104.76923    0  994          -  104.76923      -     -  170s
     0     0  104.76923    0  275          -  104.76923      -     -  182s
     0     0  104.76923    0  344          -  104.76923      -     -  195s
     0     0  104.76923    0   66          -  104.76923      -     -  205s
     0     0  104.76923    0  398          -  104.76923      -     -  208s
     0     0  104.76923    0   87          -  104.76923      -     -  225s
     0     0  104.76923    0  643          -  104.76923      -     -  229s
     0     0  104.76923    0  123          -  104.76923      -     -  241s
     0     0  104.76923    0  557          -  104.76923      -     -  256s
     0     0  104.76923    0  228          -  104.76923      -     -  284s
     0     0  104.76923    0  106          -  104.76923      -     -  298s
     0     2  104.76923    0  106          -  104.76923      -     -  345s
     1     4  106.00000    1   85          -  105.00000      -  2513  353s
     3     7  106.00000    2  194          -  105.00000      -  1022  367s
     7    11  106.00000    3  251          -  105.00000      -   643  384s
    14    21  106.00000    4  249          -  105.00000      -   528  399s
    25    35  106.00000    5  638          -  105.00000      -   367  413s
    46    59  106.00000    6  376          -  105.00000      -   393  463s
    78    87  106.00000    7  307          -  105.00000      -   475  498s
   110   118  106.00000    8  301          -  105.00000      -   430  510s
   142   141  106.00000    9  289          -  105.00000      -   343  522s
   174   173  106.00000   10  259          -  105.00000      -   287  539s
   210   203  106.00000   11  341          -  105.00000      -   248  553s
   245   235  106.00000   12  339          -  105.00000      -   219  573s
   283   273  106.00000   13  338          -  105.00000      -   200  585s
   323   306  106.00000   14  338          -  105.00000      -   179  601s
   359   343  106.00000   15  340          -  105.00000      -   164  616s
   399   378  106.00000   16  346          -  105.00000      -   151  632s
   437   416  106.00000   17  346          -  105.00000      -   140  649s
   479   456  106.00000   18  348          -  105.00000      -   131  671s
   520   513  106.00000   20  346          -  105.00000      -   134  694s
   577   568  106.00000   21  334          -  105.00000      -   123  708s
   632   621  106.00000   22  325          -  105.00000      -   115  717s
   685   675  106.00000   24  319          -  105.00000      -   107  729s
   743   734  106.00000   26  318          -  105.00000      -   100  772s
   804   797  106.00000   28  316          -  105.00000      -  95.4  783s
   867   852  106.00000   30  345          -  105.00000      -  89.5  808s
   932   942  106.00000   32  342          -  105.00000      -  85.9  837s
  1022  1041  106.00000   35  340          -  105.00000      -  81.0  851s
  1126  1117  106.00000   36  337          -  105.00000      -  78.0  864s
  1210  1226  106.00000   43  406          -  105.00000      -  79.3  883s
  1336  1347  106.00000   50  384          -  105.00000      -  75.6  905s
  1467  1438  106.00000   56  685          -  105.00000      -  72.7  918s
  1559  1565  106.00000   58  685          -  105.00000      -  72.8  947s
  1693  1757  106.00000   61  590          -  105.00000      -  70.2  965s
  1897  1985  106.00000   64  592          -  105.00000      -  64.8  978s
  2142  2336  106.00000   67  566          -  105.00000      -  60.6 1003s
  2523  2809  106.00000   81  459          -  105.00000      -  56.5 1020s
  3022  3246  106.01560   94  340          -  105.00000      -  50.8 1039s
  3506  3600  109.00000   97  287          -  105.00000      -  48.1 1060s
  3900  4003  109.00000  106  410          -  105.00000      -  47.8 1081s
  4351  4571  109.00000  117  415          -  105.00000      -  47.5 1112s
  4993  5098  109.00000  134  430          -  105.00000      -  45.2 1144s
  5588  5542  109.00000  141  534          -  105.00000      -  44.8 1186s
  6111  6048  109.00000  152  429          -  105.00000      -  45.7 1241s
  6730  6487  109.00000  178  464          -  105.00000      -  46.1 1300s
  7296  6888  109.00000  188  454          -  105.00000      -  47.2 1369s
  7327  6888  113.00000   92  790          -  105.00000      -  47.6 1371s
  7460  6888  109.00000  129  919          -  105.00000      -  47.9 1382s
  7767  7769  109.00000  195  441          -  105.00000      -  50.3 1846s
  8761  8634  117.00000  249  594          -  105.00000      -  49.6 3771s
  9366  8634 infeasible  135               -  105.00000      -  50.4 3991s

Cutting planes:
  Gomory: 31
  Cover: 70
  Implied bound: 159
  Clique: 3
  MIR: 744
  StrongCG: 14
  Inf proof: 1
  RLT: 639
  Relax-and-lift: 32

Explored 9798 nodes (582885 simplex iterations) in 4549.50 seconds (89.00 work units)
Thread count was 32 (of 32 available processors)

Solution count 0

Time limit reached
Best objective -, best bound 1.050000000000e+02, gap -

Unable to retrieve attribute 'X'

